50, 1274
40, 35
80, 70
160, 140
120, 105
17, 12
34, 24
68, 48
34, 29
68, 58
136, 116
34, 29
46, 41
92, 82
46, 41
40, 35
26, 21
52, 42
78, 63
6, 1
12, 2
6, 1
8, 3
16, 6
8, 3
47, 42
94, 84
47, 42
31, 26
62, 52
62, 52
53, 48
106, 96
159, 144
49, 44
98, 88
196, 176
98, 88
45, 40
35, 30
70, 60
35, 30
21, 16
42, 32
63, 48
49, 44
98, 88
147, 132
15, 10
30, 20
15, 10
